\ENCODING=ISO-8859-1
\Problem name: IloCplex

Maximize
 obj: 28.24 x1 + 5.34 x2 + 28.24 x3 + 5.34 x4 + 21.37 x5 + 8.46 x6 + 21.37 x7
      + 8.46 x8 + 15.57 x9 + 12.67 x10 + 15.57 x11 + 12.67 x12 + 10.9 x13
      + 17.99 x14 + 10.9 x15 + 17.99 x16 + 7.31 x17 + 24.41 x18 + 7.31 x19
      + 24.41 x20 + 4.69 x21 + 31.79 x22 + 4.69 x23 + 31.79 x24 + 2.88 x25
      + 39.97 x26 + 2.88 x27 + 39.97 x28 + 765.32 x29 + 1.0037 x30 + x31
Subject To
 c1:  28.52 x1 + 6.88 x2 + 27.63 x3 + 6.5 x4 + 21.5 x5 + 9.75 x6 + 20.5 x7
      + 9.25 x8 + 15 x9 + 13.62 x10 + 14.25 x11 + 13.25 x12 + 10 x13
      + 18.75 x14 + 9.5 x15 + 18 x16 + 6.13 x17 + 24.75 x18 + 5.63 x19
      + 23.75 x20 + 3.38 x21 + 32.25 x22 + 3 x23 + 31.25 x24 + 1.88 x25
      + 40.63 x26 + 1.5 x27 + 39.63 x28 + 760.48 x29 + x30 <= 100
 c2:  740 x2 + 740 x4 + 750 x6 + 750 x8 + 760 x10 + 760 x12 + 770 x14 + 770 x16
      + 780 x18 + 780 x20 + 790 x22 + 790 x24 + 800 x26 + 800 x28 + 1.59 x29
      + 1.0037 x30 >= 90
 c3:  - 740 x2 - 740 x4 - 740 x6 - 740 x8 - 740 x10 - 740 x12 - 740 x14
      - 740 x16 - 740 x18 - 740 x20 - 740 x22 - 740 x24 - 740 x26 - 740 x28
      + 740 x29 >= 0
 c4:  10 x1 + 10 x3 - 10 x6 - 10 x8 - 10 x10 - 10 x12 - 10 x14 - 10 x16
      - 10 x18 - 10 x20 - 10 x22 - 10 x24 - 10 x26 - 10 x28 + 10 x29 >= 0
 c5:  10 x1 + 10 x3 + 10 x5 + 10 x7 - 10 x10 - 10 x12 - 10 x14 - 10 x16
      - 10 x18 - 10 x20 - 10 x22 - 10 x24 - 10 x26 - 10 x28 + 10 x29 >= 0
 c6:  10 x1 + 10 x3 + 10 x5 + 10 x7 + 10 x9 + 10 x11 - 10 x14 - 10 x16 - 10 x18
      - 10 x20 - 10 x22 - 10 x24 - 10 x26 - 10 x28 + 10 x29 >= 0
 c7:  10 x1 + 10 x3 + 10 x5 + 10 x7 + 10 x9 + 10 x11 + 10 x13 + 10 x15 - 10 x18
      - 10 x20 - 10 x22 - 10 x24 - 10 x26 - 10 x28 + 10 x29 >= 0
 c8:  10 x1 + 10 x3 + 10 x5 + 10 x7 + 10 x9 + 10 x11 + 10 x13 + 10 x15 + 10 x17
      + 10 x19 - 10 x22 - 10 x24 - 10 x26 - 10 x28 + 10 x29 >= 0
 c9:  x1 + x5 + x9 + x13 + x17 + x21 + x25 + x29 >= 0
 c10: 3.0000011920929 x1 + 3.0000011920929 x3 + 6.9999988079071 x6
      + 6.9999988079071 x8 + 16.9999988079071 x10 + 16.9999988079071 x12
      + 26.9999988079071 x14 + 26.9999988079071 x16 + 36.9999988079071 x18
      + 36.9999988079071 x20 + 46.9999988079071 x22 + 46.9999988079071 x24
      + 56.9999988079071 x26 + 56.9999988079071 x28 + 744.590001192093 x29
      + 1.0037 x30 >= 100
Bounds
 -Inf <= x3 <= 0
 -Inf <= x4 <= 0
 -Inf <= x7 <= 0
 -Inf <= x8 <= 0
 -Inf <= x11 <= 0
 -Inf <= x12 <= 0
 -Inf <= x15 <= 0
 -Inf <= x16 <= 0
 -Inf <= x19 <= 0
 -Inf <= x20 <= 0
 -Inf <= x23 <= 0
 -Inf <= x24 <= 0
 -Inf <= x27 <= 0
 -Inf <= x28 <= 0
      x31 = 0
End
